Route #1: 17 12 53 14 59 19 35 7 26
Route #2: 40 3 44 32 9 39 72 58 38
Route #3: 11 66 65 10 31 55 25 50
Route #4: 18 24 49 23 56 41 64 42 43 1 73
Route #5: 6 51 16 63 33 22 62 2 68 75
Route #6: 8 54 13 57 15 20 70 60 71 69 61 28 74
Route #7: 30 48 21 47 36 37 5 29 45
Route #8: 4 27 52 46 34 67
Cost 802